50
10913

218 766
385 500
382 569
28 211
580 980
112 49
260 878
908 298
637 666
266 986
359 14
849 321
232 90
678 894
114 940
302 429
159 881
404 744
302 358
135 14
969 312
848 394
450 781
816 209
189 563
274 364
961 44
49 204
230 884
841 266
726 620
396 577
257 738
736 861
987 276
551 458
932 575
537 927
888 917
443 804
841 704
842 665
172 535
720 264
667 568
243 372
341 445
692 936
6 857
95 893
